c b=3,c=67
p cnf 12 28
2 3 -6 0
1 3 -7 0
3 -12 0
2 -3 6 0
2 -3 7 0
-3 12 0
1 2 -5 0
2 -8 0
2 -11 0
1 -2 3 6 0
3 -8 0
1 -2 -3 -6 0
-2 -3 8 0
1 -2 5 0
1 -2 -7 0
-2 11 0
1 -4 0
1 -10 0
-1 3 -6 0
2 3 -7 0
-1 -3 6 0
-1 2 5 0
-1 -2 3 7 0
-2 -3 -7 0
-1 -2 -5 0
-1 4 0
-1 10 0
-9 0
